Route 1: 13 17 18 19 15 16 14 12 5
Route 2: 3 2 1 8 10 11 9 6 4 7 26
Route 3: 20 24 25 27 29 30 28 23 22 21
Route 4: 32 33 35 37 38 39 36 31 34
Route 5: 43 42 41 40 44 46 45 48 50 49 47
Vehicles: 5
Distance: 402.49
